SCIP version 5.0.0 [precision: 8 byte] [memory: block] [mode: optimized] [LP solver: NONE] [GitHash: 3bbd232]
Copyright (C) 2002-2017 Konrad-Zuse-Zentrum fuer Informationstechnik Berlin (ZIB)

External codes: 
  Readline EditLine w  GNU library for command line editing (gnu.org/s/readline)
  CppAD 20160000.1     Algorithmic Differentiation of C++ algorithms developed by B. Bell (www.coin-or.org/CppAD)
  ZLIB 1.2.5           General purpose compression library by J. Gailly and M. Adler (zlib.net)
  GMP 6.1.2            GNU Multiple Precision Arithmetic Library developed by T. Granlund (gmplib.org)

user parameter file <scip.set> not found - using default parameters

read problem <../../Split_data/output/spectf/9/3_sample_spectf.logreg>
============

File name	:	../../Split_data/output/spectf/9/3_sample_spectf.logreg
Problem name 	:	3_sample_spectf
Number of data	:	213
Number of var	:	44
The given data has linear independence

[dim=1] time: 0.009498
[dim=2] time: 0.01771
[dim=3] time: 0.028704
[dim=4] time: 0.036771
[dim=5] time: 0.045297
[dim=6] time: 0.052181
[dim=7] time: 0.05873
[dim=8] time: 0.064839
[dim=9] time: 0.072632
[dim=10] time: 0.078387
[dim=11] time: 0.084277
[dim=12] time: 0.090196
[dim=13] time: 0.099328
[dim=14] time: 0.104616
[dim=15] time: 0.109777
[dim=16] time: 0.11481
[dim=17] Time of forward = 0.119796sec.
AIC: 123.114
k: 16

[dim=44] time: 1.2384
[dim=43] time: 2.5311
[dim=42] time: 4.5697
[dim=41] time: 5.26979
[dim=40] time: 6.26379
[dim=39] time: 7.27905
[dim=38] Time of backward = 7.30479sec.
AIC: 78.0606
k: 39
